(declare-fun b17 () (_ FloatingPoint 8 24))
(declare-fun b44 () (_ FloatingPoint 8 24))
(declare-fun b92 () (_ FloatingPoint 8 24))
(declare-fun b101 () (_ FloatingPoint 8 24))
(declare-fun b98 () (_ FloatingPoint 8 24))
(declare-fun b86 () (_ FloatingPoint 8 24))
(declare-fun b50 () (_ FloatingPoint 8 24))
(declare-fun b10 () (_ FloatingPoint 8 24))
(declare-fun b71 () (_ FloatingPoint 8 24))
(declare-fun b47 () (_ FloatingPoint 8 24))
(declare-fun b23 () (_ FloatingPoint 8 24))
(declare-fun b77 () (_ FloatingPoint 8 24))
(declare-fun b11 () (_ FloatingPoint 8 24))
(declare-fun b53 () (_ FloatingPoint 8 24))
(declare-fun b29 () (_ FloatingPoint 8 24))
(declare-fun b35 () (_ FloatingPoint 8 24))
(declare-fun b59 () (_ FloatingPoint 8 24))
(declare-fun b169 () (_ FloatingPoint 8 24))
(declare-fun b20 () (_ FloatingPoint 8 24))
(declare-fun b74 () (_ FloatingPoint 8 24))
(declare-fun b89 () (_ FloatingPoint 8 24))
(declare-fun b80 () (_ FloatingPoint 8 24))
(declare-fun b95 () (_ FloatingPoint 8 24))
(declare-fun b62 () (_ FloatingPoint 8 24))
(declare-fun b14 () (_ FloatingPoint 8 24))
(declare-fun b38 () (_ FloatingPoint 8 24))
(declare-fun b65 () (_ FloatingPoint 8 24))
(declare-fun b56 () (_ FloatingPoint 8 24))
(declare-fun b26 () (_ FloatingPoint 8 24))
(declare-fun b172 () (_ FloatingPoint 8 24))
(declare-fun b32 () (_ FloatingPoint 8 24))
(declare-fun b68 () (_ FloatingPoint 8 24))
(declare-fun b41 () (_ FloatingPoint 8 24))
(declare-fun b83 () (_ FloatingPoint 8 24))
(assert (let ((.def_192 (fp.lt b98 b172)))
(let ((.def_190 (fp.lt b169 b98)))
(let ((.def_188 (fp.lt b95 b172)))
(let ((.def_186 (fp.lt b169 b95)))
(let ((.def_184 (fp.lt b92 b172)))
(let ((.def_182 (fp.lt b169 b92)))
(let ((.def_180 (fp.lt b89 b172)))
(let ((.def_178 (fp.lt b169 b89)))
(let ((.def_176 (fp.lt b86 b172)))
(let ((.def_174 (fp.lt b169 b86)))
(let ((.def_172 (fp.lt b83 b172)))
(let ((.def_170 (fp.lt b169 b83)))
(let ((.def_168 (fp.lt b80 b172)))
(let ((.def_166 (fp.lt b169 b80)))
(let ((.def_164 (fp.lt b77 b172)))
(let ((.def_162 (fp.lt b169 b77)))
(let ((.def_160 (fp.lt b74 b172)))
(let ((.def_158 (fp.lt b169 b74)))
(let ((.def_156 (fp.lt b71 b172)))
(let ((.def_154 (fp.lt b169 b71)))
(let ((.def_152 (fp.lt b68 b172)))
(let ((.def_150 (fp.lt b169 b68)))
(let ((.def_148 (fp.lt b65 b172)))
(let ((.def_146 (fp.lt b169 b65)))
(let ((.def_144 (fp.lt b62 b172)))
(let ((.def_142 (fp.lt b169 b62)))
(let ((.def_140 (fp.lt b59 b172)))
(let ((.def_138 (fp.lt b169 b59)))
(let ((.def_136 (fp.lt b56 b172)))
(let ((.def_134 (fp.lt b169 b56)))
(let ((.def_132 (fp.lt b53 b172)))
(let ((.def_130 (fp.lt b169 b53)))
(let ((.def_128 (fp.lt b50 b172)))
(let ((.def_126 (fp.lt b169 b50)))
(let ((.def_124 (fp.lt b47 b172)))
(let ((.def_122 (fp.lt b169 b47)))
(let ((.def_120 (fp.lt b44 b172)))
(let ((.def_118 (fp.lt b169 b44)))
(let ((.def_116 (fp.lt b41 b172)))
(let ((.def_114 (fp.lt b169 b41)))
(let ((.def_112 (fp.lt b38 b172)))
(let ((.def_110 (fp.lt b169 b38)))
(let ((.def_108 (fp.lt b35 b172)))
(let ((.def_106 (fp.lt b169 b35)))
(let ((.def_104 (fp.lt b32 b172)))
(let ((.def_102 (fp.lt b169 b32)))
(let ((.def_100 (fp.lt b29 b172)))
(let ((.def_98 (fp.lt b169 b29)))
(let ((.def_96 (fp.lt b26 b172)))
(let ((.def_94 (fp.lt b169 b26)))
(let ((.def_92 (fp.lt b23 b172)))
(let ((.def_90 (fp.lt b169 b23)))
(let ((.def_88 (fp.lt b20 b172)))
(let ((.def_86 (fp.lt b169 b20)))
(let ((.def_84 (fp.lt b17 b172)))
(let ((.def_82 (fp.lt b169 b17)))
(let ((.def_80 (fp.lt b14 b172)))
(let ((.def_78 (fp.lt b169 b14)))
(let ((.def_76 (fp.lt b11 b172)))
(let ((.def_13 (fp.mul RNE b11 b10)))
(let ((.def_15 (fp.mul RNE .def_13 b14)))
(let ((.def_17 (fp.mul RNE .def_15 b17)))
(let ((.def_19 (fp.mul RNE .def_17 b20)))
(let ((.def_21 (fp.mul RNE .def_19 b23)))
(let ((.def_23 (fp.mul RNE .def_21 b26)))
(let ((.def_25 (fp.mul RNE .def_23 b29)))
(let ((.def_27 (fp.mul RNE .def_25 b32)))
(let ((.def_29 (fp.mul RNE .def_27 b35)))
(let ((.def_31 (fp.mul RNE .def_29 b38)))
(let ((.def_33 (fp.mul RNE .def_31 b41)))
(let ((.def_35 (fp.mul RNE .def_33 b44)))
(let ((.def_37 (fp.mul RNE .def_35 b47)))
(let ((.def_39 (fp.mul RNE .def_37 b50)))
(let ((.def_41 (fp.mul RNE .def_39 b53)))
(let ((.def_43 (fp.mul RNE .def_41 b56)))
(let ((.def_45 (fp.mul RNE .def_43 b59)))
(let ((.def_47 (fp.mul RNE .def_45 b62)))
(let ((.def_49 (fp.mul RNE .def_47 b65)))
(let ((.def_51 (fp.mul RNE .def_49 b68)))
(let ((.def_53 (fp.mul RNE .def_51 b71)))
(let ((.def_55 (fp.mul RNE .def_53 b74)))
(let ((.def_57 (fp.mul RNE .def_55 b77)))
(let ((.def_59 (fp.mul RNE .def_57 b80)))
(let ((.def_61 (fp.mul RNE .def_59 b83)))
(let ((.def_63 (fp.mul RNE .def_61 b86)))
(let ((.def_65 (fp.mul RNE .def_63 b89)))
(let ((.def_67 (fp.mul RNE .def_65 b92)))
(let ((.def_69 (fp.mul RNE .def_67 b95)))
(let ((.def_71 (fp.mul RNE .def_69 b98)))
(let ((.def_73 (fp.lt .def_71 b101)))
(let ((.def_11 (fp.lt b169 b11)))
(let ((.def_74 (and .def_11 .def_73)))
(let ((.def_77 (and .def_74 .def_76)))
(let ((.def_79 (and .def_77 .def_78)))
(let ((.def_81 (and .def_79 .def_80)))
(let ((.def_83 (and .def_81 .def_82)))
(let ((.def_85 (and .def_83 .def_84)))
(let ((.def_87 (and .def_85 .def_86)))
(let ((.def_89 (and .def_87 .def_88)))
(let ((.def_91 (and .def_89 .def_90)))
(let ((.def_93 (and .def_91 .def_92)))
(let ((.def_95 (and .def_93 .def_94)))
(let ((.def_97 (and .def_95 .def_96)))
(let ((.def_99 (and .def_97 .def_98)))
(let ((.def_101 (and .def_99 .def_100)))
(let ((.def_103 (and .def_101 .def_102)))
(let ((.def_105 (and .def_103 .def_104)))
(let ((.def_107 (and .def_105 .def_106)))
(let ((.def_109 (and .def_107 .def_108)))
(let ((.def_111 (and .def_109 .def_110)))
(let ((.def_113 (and .def_111 .def_112)))
(let ((.def_115 (and .def_113 .def_114)))
(let ((.def_117 (and .def_115 .def_116)))
(let ((.def_119 (and .def_117 .def_118)))
(let ((.def_121 (and .def_119 .def_120)))
(let ((.def_123 (and .def_121 .def_122)))
(let ((.def_125 (and .def_123 .def_124)))
(let ((.def_127 (and .def_125 .def_126)))
(let ((.def_129 (and .def_127 .def_128)))
(let ((.def_131 (and .def_129 .def_130)))
(let ((.def_133 (and .def_131 .def_132)))
(let ((.def_135 (and .def_133 .def_134)))
(let ((.def_137 (and .def_135 .def_136)))
(let ((.def_139 (and .def_137 .def_138)))
(let ((.def_141 (and .def_139 .def_140)))
(let ((.def_143 (and .def_141 .def_142)))
(let ((.def_145 (and .def_143 .def_144)))
(let ((.def_147 (and .def_145 .def_146)))
(let ((.def_149 (and .def_147 .def_148)))
(let ((.def_151 (and .def_149 .def_150)))
(let ((.def_153 (and .def_151 .def_152)))
(let ((.def_155 (and .def_153 .def_154)))
(let ((.def_157 (and .def_155 .def_156)))
(let ((.def_159 (and .def_157 .def_158)))
(let ((.def_161 (and .def_159 .def_160)))
(let ((.def_163 (and .def_161 .def_162)))
(let ((.def_165 (and .def_163 .def_164)))
(let ((.def_167 (and .def_165 .def_166)))
(let ((.def_169 (and .def_167 .def_168)))
(let ((.def_171 (and .def_169 .def_170)))
(let ((.def_173 (and .def_171 .def_172)))
(let ((.def_175 (and .def_173 .def_174)))
(let ((.def_177 (and .def_175 .def_176)))
(let ((.def_179 (and .def_177 .def_178)))
(let ((.def_181 (and .def_179 .def_180)))
(let ((.def_183 (and .def_181 .def_182)))
(let ((.def_185 (and .def_183 .def_184)))
(let ((.def_187 (and .def_185 .def_186)))
(let ((.def_189 (and .def_187 .def_188)))
(let ((.def_191 (and .def_189 .def_190)))
(let ((.def_193 (and .def_191 .def_192)))
.def_193))))))))))))))))))))))))))))))))))))))))))))))))))))))))))))))))))))))))))))))))))))))))))))))))))))))))))))))))))))))))))))))))))))))))))))))))))))))))
(check-sat)
